NAME : weird20
COMMENT : Algorithm MST_CLRS(+2opt)
COMMENT : Length 441 
COMMENT : Elapsed time 0.000013 seconds
TYPE : TOUR
DIMENSION : 20
TOUR_SECTION
1
14
8
20
12
18
4
9
2
6
15
7
19
11
13
17
3
5
10
16
1
EOF
